Problem:    
Rows:       68
Columns:    29 (20 integer, 20 binary)
Non-zeros:  210
Status:     INTEGER OPTIMAL
Objective:  value = 15.603506 (MINimum)

   No.   Row name        Activity     Lower bound   Upper bound
------ ------------    ------------- ------------- -------------
     1 r.5                   15.6035             0               
     2 r.6                   15.6035      -984.882               
     3 r.7                    1015.6             0               
     4 r.8                  -984.396      -993.355               
     5 r.9                    1015.6             0               
     6 r.10                 -984.396      -985.319               
     7 r.11                  15.6035             0               
     8 r.12                  15.6035      -986.465               
     9 r.13                  15.6035             0               
    10 r.14                  15.6035      -999.742               
    11 r.15                   1015.6             0               
    12 r.16                 -991.042      -999.488               
    13 r.17                  15.6035             0               
    14 r.18                  2.00721      -999.896               
    15 r.19                   1015.6             0               
    16 r.20                 -999.513      -999.513               
    17 r.21                        1             1             = 
    18 r.22                        1             1             = 
    19 r.23                        1             1             = 
    20 r.24                        1             1             = 
    21 r.25                     1001             2               
    22 r.26                    -1001         -1001               
    23 r.27                     2000      -985.319               
    24 r.28                     1001             2               
    25 r.29                    -1001         -1001               
    26 r.30                     2000      -986.465               
    27 r.31                     1000             2               
    28 r.32                    -1000         -1001               
    29 r.33                     2000      -999.742               
    30 r.34                        2             2               
    31 r.35                       -2         -1001               
    32 r.36                 -6.64544      -999.488               
    33 r.37                   14.681      -984.882               
    34 r.38                 -985.319      -993.355               
    35 r.39                   14.681      -984.882               
    36 r.40                 -985.319      -993.355               
    37 r.41                     1001             2               
    38 r.42                    -1001         -1001               
    39 r.43                     2000       15.1176               
    40 r.44                     1001             2               
    41 r.45                    -1001         -1001               
    42 r.46                     2000       6.64544               
    43 r.47                     1001             2               
    44 r.48                    -1001         -1001               
    45 r.49                     2000      -999.742               
    46 r.50                     1001             2               
    47 r.51                    -1001         -1001               
    48 r.52                  1993.35      -999.488               
    49 r.53                 -985.319      -985.319               
    50 r.54                   14.681      -986.465               
    51 r.55                 -985.319      -985.319               
    52 r.56                   14.681      -986.465               
    53 r.57                     1000             2               
    54 r.58                    -1000         -1001               
    55 r.59                     2000       15.1176               
    56 r.60                        2             2               
    57 r.61                       -2         -1001               
    58 r.62                  6.64544       6.64544               
    59 r.63                     1001             2               
    60 r.64                    -1001         -1001               
    61 r.65                     2000        14.681               
    62 r.66                     1001             2               
    63 r.67                    -1001         -1001               
    64 r.68                  2006.65        13.535               
    65 r.69                   14.681      -999.742               
    66 r.70                 -991.964      -999.488               
    67 r.71                   14.681      -999.742               
    68 r.72                 -991.964      -999.488               

   No. Column name       Activity     Lower bound   Upper bound
------ ------------    ------------- ------------- -------------
     1 tt                    15.6035             0               
     2 s_1_1        *              0             0             1 
     3 t_1_1                       0             0               
     4 s_2_1        *              1             0             1 
     5 t_2_1                       0             0               
     6 s_1_2        *              1             0             1 
     7 t_1_2                       0             0               
     8 s_2_2        *              0             0             1 
     9 t_2_2                       0             0               
    10 s_1_3        *              0             0             1 
    11 t_1_3                       0             0               
    12 s_2_3        *              1             0             1 
    13 t_2_3                 6.64544             0               
    14 s_1_4        *              0             0             1 
    15 t_1_4                  14.681             0               
    16 s_2_4        *              1             0             1 
    17 t_2_4                  14.681             0               
    18 r_1_1_2      *              1             0             1 
    19 u_1_1_2      *              0             0             1 
    20 r_2_1_2      *              1             0             1 
    21 u_2_1_2      *              0             0             1 
    22 r_1_1_3      *              1             0             1 
    23 u_1_1_3      *              0             0             1 
    24 r_2_1_3      *              0             0             1 
    25 u_2_1_3      *              0             0             1 
    26 r_1_2_3      *              1             0             1 
    27 u_1_2_3      *              0             0             1 
    28 r_2_2_3      *              1             0             1 
    29 u_2_2_3      *              0             0             1 

Integer feasibility conditions:

KKT.PE: max.abs.err = 1.14e-13 on row 16
        max.rel.err = 5.59e-17 on row 16
        High quality

KKT.PB: max.abs.err = 0.00e+00 on row 0
        max.rel.err = 0.00e+00 on row 0
        High quality

End of output
